NAME : rnd11_50.tsp.tsp.opt.tour
TYPE : TOUR
DIMENSION : 50
TOUR_SECTION
1
29
33
38
25
16
27
9
39
8
36
41
50
2
11
20
10
14
4
23
47
34
43
17
13
37
21
3
49
24
48
22
26
32
12
28
7
18
46
19
40
31
5
30
15
6
44
45
35
42
-1